c Generated map
c Size: 9 * 9, weights in range: 1 to 10, walls: True, with ratio 0.1
c dim 6 of 7
c
p sp 81 115
c graph contains 81 nodes and 115 arcs
c
a 1 10 9
a 10 1 9
a 1 2 7
a 2 1 7
a 2 11 4
a 11 2 4
a 2 3 10
a 3 2 10
a 3 12 10
a 12 3 10
a 3 4 9
a 4 3 9
a 4 5 1
a 5 4 1
a 5 14 3
a 14 5 3
a 5 6 8
a 6 5 8
a 6 15 3
a 15 6 3
a 6 7 9
a 7 6 9
a 7 16 10
a 16 7 10
a 7 8 2
a 8 7 2
a 8 17 1
a 17 8 1
a 8 9 3
a 9 8 3
a 10 19 8
a 19 10 8
a 10 11 7
a 11 10 7
a 11 20 2
a 20 11 2
a 11 12 7
a 12 11 7
a 12 21 2
a 21 12 2
a 14 23 8
a 23 14 8
a 14 15 3
a 15 14 3
a 15 24 3
a 24 15 3
a 15 16 2
a 16 15 2
a 16 25 5
a 25 16 5
a 16 17 2
a 17 16 2
a 17 26 7
a 26 17 7
a 19 28 6
a 28 19 6
a 19 20 4
a 20 19 4
a 20 21 8
a 21 20 8
a 21 30 8
a 30 21 8
a 21 22 8
a 22 21 8
a 22 31 3
a 31 22 3
a 22 23 7
a 23 22 7
a 23 32 10
a 32 23 10
a 23 24 6
a 24 23 6
a 24 33 7
a 33 24 7
a 24 25 8
a 25 24 8
a 25 34 9
a 34 25 9
a 25 26 4
a 26 25 4
a 26 27 2
a 27 26 2
a 27 36 9
a 36 27 9
a 28 37 4
a 37 28 4
a 30 39 1
a 39 30 1
a 30 31 4
a 31 30 4
a 31 40 10
a 40 31 10
a 31 32 9
a 32 31 9
a 32 41 10
a 41 32 10
a 32 33 7
a 33 32 7
a 33 42 3
a 42 33 3
a 33 34 2
a 34 33 2
a 34 43 10
a 43 34 10
a 36 45 2
a 45 36 2
a 37 38 3
a 38 37 3
a 38 47 4
a 47 38 4
a 38 39 5
a 39 38 5
a 39 48 1
a 48 39 1
a 39 40 10
a 40 39 10
a 40 49 2
a 49 40 2
a 40 41 1
a 41 40 1
a 41 42 10
a 42 41 10
a 42 51 6
a 51 42 6
a 42 43 1
a 43 42 1
a 43 52 7
a 52 43 7
a 43 44 5
a 44 43 5
a 44 53 7
a 53 44 7
a 44 45 4
a 45 44 4
a 45 54 10
a 54 45 10
a 47 56 6
a 56 47 6
a 47 48 8
a 48 47 8
a 48 57 9
a 57 48 9
a 48 49 10
a 49 48 10
a 49 58 7
a 58 49 7
a 51 60 4
a 60 51 4
a 51 52 7
a 52 51 7
a 52 61 2
a 61 52 2
a 52 53 10
a 53 52 10
a 53 54 8
a 54 53 8
a 54 63 10
a 63 54 10
a 55 64 10
a 64 55 10
a 55 56 1
a 56 55 1
a 56 65 3
a 65 56 3
a 56 57 7
a 57 56 7
a 57 66 3
a 66 57 3
a 57 58 1
a 58 57 1
a 58 67 7
a 67 58 7
a 58 59 8
a 59 58 8
a 59 68 1
a 68 59 1
a 59 60 2
a 60 59 2
a 60 69 8
a 69 60 8
a 60 61 6
a 61 60 6
a 61 70 10
a 70 61 10
a 63 72 6
a 72 63 6
a 64 73 4
a 73 64 4
a 64 65 6
a 65 64 6
a 65 66 5
a 66 65 5
a 66 75 8
a 75 66 8
a 66 67 5
a 67 66 5
a 67 76 9
a 76 67 9
a 67 68 10
a 68 67 10
a 68 77 4
a 77 68 4
a 68 69 6
a 69 68 6
a 69 78 9
a 78 69 9
a 69 70 4
a 70 69 4
a 70 79 7
a 79 70 7
a 70 71 9
a 71 70 9
a 71 80 10
a 80 71 10
a 71 72 9
a 72 71 9
a 72 81 4
a 81 72 4
a 75 76 1
a 76 75 1
a 76 77 3
a 77 76 3
a 77 78 1
a 78 77 1
a 78 79 2
a 79 78 2
a 79 80 1
a 80 79 1
a 80 81 6
a 81 80 6
